* #variable= 100 #constraint= 1
min: -188 x1 -706 x2 -632 x3 -299 x4 -870 x5 -956 x6 -487 x7 -488 x8 -728 x9 -414 x10 -526 x11 -525 x12 -873 x13 -670 x14 -680 x15 -504 x16 -905 x17 -395 x18 -198 x19 -343 x20 -624 x21 -475 x22 -623 x23 -415 x24 -456 x25 -367 x26 -832 x27 -822 x28 -881 x29 -395 x30 -633 x31 -424 x32 -489 x33 -594 x34 -380 x35 -990 x36 -477 x37 -335 x38 -794 x39 -566 x40 -225 x41 -470 x42 -28 x43 -379 x44 -720 x45 -864 x46 -715 x47 -572 x48 -361 x49 -653 x50 -156 x51 -403 x52 -230 x53 -684 x54 -812 x55 -604 x56 -746 x57 -878 x58 -491 x59 -421 x60 -494 x61 -753 x62 -696 x63 -972 x64 -496 x65 -176 x66 -185 x67 -747 x68 -720 x69 -544 x70 -29 x71 -873 x72 -816 x73 -357 x74 -553 x75 -467 x76 -904 x77 -211 x78 -539 x79 -360 x80 -395 x81 -152 x82 -670 x83 -282 x84 -482 x85 -78 x86 -778 x87 -143 x88 -643 x89 -759 x90 -271 x91 -87 x92 -886 x93 -985 x94 -142 x95 -857 x96 -131 x97 -401 x98 -36 x99 -182 x100 ;
-188 x1 -706 x2 -632 x3 -299 x4 -870 x5 -956 x6 -487 x7 -488 x8 -728 x9 -414 x10 -526 x11 -525 x12 -873 x13 -670 x14 -680 x15 -504 x16 -905 x17 -395 x18 -198 x19 -343 x20 -624 x21 -475 x22 -623 x23 -415 x24 -456 x25 -367 x26 -832 x27 -822 x28 -881 x29 -395 x30 -633 x31 -424 x32 -489 x33 -594 x34 -380 x35 -990 x36 -477 x37 -335 x38 -794 x39 -566 x40 -225 x41 -470 x42 -28 x43 -379 x44 -720 x45 -864 x46 -715 x47 -572 x48 -361 x49 -653 x50 -156 x51 -403 x52 -230 x53 -684 x54 -812 x55 -604 x56 -746 x57 -878 x58 -491 x59 -421 x60 -494 x61 -753 x62 -696 x63 -972 x64 -496 x65 -176 x66 -185 x67 -747 x68 -720 x69 -544 x70 -29 x71 -873 x72 -816 x73 -357 x74 -553 x75 -467 x76 -904 x77 -211 x78 -539 x79 -360 x80 -395 x81 -152 x82 -670 x83 -282 x84 -482 x85 -78 x86 -778 x87 -143 x88 -643 x89 -759 x90 -271 x91 -87 x92 -886 x93 -985 x94 -142 x95 -857 x96 -131 x97 -401 x98 -36 x99 -182 x100 >= -13142 ;